# Solution for model PD-Stages
# Objective value = 33.5136693798169
zigjg[101,102,2] 0
zigjg[101,203,2] 1
zigjg[101,303,2] 0
zigjg[102,101,2] 1
zigjg[102,203,2] 0
zigjg[102,303,2] 0
zigjg[203,101,2] 0
zigjg[203,102,2] 0
zigjg[203,303,2] 1
zigjg[303,101,2] 0
zigjg[303,102,2] 1
zigjg[303,203,2] 0
sig[101,2] 0
sig[102,2] 3
sig[203,2] 1
sig[303,2] 2
digjg[101,102,2] 10000
digjg[101,203,2] 0
digjg[101,303,2] 10000
digjg[102,101,2] 0
digjg[102,203,2] 10000
digjg[102,303,2] 10000
digjg[203,101,2] 10000
digjg[203,102,2] 10000
digjg[203,303,2] 0
digjg[303,101,2] 10000
digjg[303,102,2] 0
digjg[303,203,2] 10000
difigjg[101,102,2,0] 9.8515137863159872e+00
difigjg[101,102,2,1] 8.8700197341078368e+00
difigjg[101,203,2,0] 0
difigjg[101,203,2,1] 0
difigjg[101,303,2,0] 3.7257035943184746e-01
difigjg[101,303,2,1] 7.1121088202323932e+00
difigjg[102,101,2,0] 0
difigjg[102,101,2,1] 0
difigjg[102,203,2,0] 7.0365451130026049e+00
difigjg[102,203,2,1] 4.1511066996645241e-01
difigjg[102,303,2,0] 6.6639747535695131e+00
difigjg[102,303,2,1] 7.5272194901997294e+00
difigjg[203,101,2,0] 6.6639747535696321e+00
difigjg[203,101,2,1] 7.5272194901995571e+00
difigjg[203,102,2,0] 9.47894342688357
difigjg[203,102,2,1] 1.7579109138762421e+00
difigjg[203,303,2,0] 0
difigjg[203,303,2,1] 0
difigjg[303,101,2,0] 2.8149686733140697e+00
difigjg[303,101,2,1] 9.2851304040752183e+00
difigjg[303,102,2,0] 0
difigjg[303,102,2,1] 0
difigjg[303,203,2,0] 9.8515137863165378e+00
difigjg[303,203,2,1] 8.8700197341080411e+00
pigjg[101,102,2] 0
pigjg[101,203,2] 0
pigjg[101,303,2] 0
pigjg[102,101,2] 0
pigjg[102,203,2] 0
pigjg[102,303,2] 0
pigjg[203,101,2] 0
pigjg[203,102,2] 0
pigjg[203,303,2] 0
pigjg[303,101,2] 0
pigjg[303,102,2] 0
pigjg[303,203,2] 0
Rig[101,2,0] 4.3835535237325324e+01
Rig[101,2,1] 1.2799493503122923e+00
Rig[102,2,0] 4.1020566564011389e+01
Rig[102,2,1] 1.0565079754385662e+01
Rig[203,2,0] 5.0872080350327366e+01
Rig[203,2,1] 1.6950600202794703e+00
Rig[303,2,0] 5.0499509990894957e+01
Rig[303,2,1] 8.8071688405119914e+00
rhoig[101,2] 9.9999999999999911e-01
rhoig[102,2] 1.9895196601282805e-13
rhoig[203,2] 9.9999999999999034e-01
rhoig[303,2] -8.8817841970012523e-16
Lig[101,2,0] 5.0872080350327373e+01
Lig[101,2,1] 1.6950600202795982e+00
Lig[102,2,0] 4.3835535237324756e+01
Lig[102,2,1] 1.2799493503141282e+00
Lig[203,2,0] 5.0499509990894957e+01
Lig[203,2,1] 8.80716884051185
Lig[303,2,0] 4.1020566564010828e+01
Lig[303,2,1] 1.0565079754387511e+01
landaig[101,2] -8.8817841970012523e-16
landaig[102,2] 9.9999999999980227e-01
landaig[203,2] -7.5495165674510645e-15
landaig[303,2] 9.9999999999999822e-01
minig[101,2] 0
minig[102,2] 9.9999999999980094e-01
minig[203,2] 0
minig[303,2] 1
maxig[101,2] 1
maxig[102,2] 1.9906298831529057e-13
maxig[203,2] 1
maxig[303,2] 0
entryig[101,2] 0
entryig[102,2] 9.9999999999980094e-01
entryig[203,2] 0
entryig[303,2] 1
muig[101,2] 1
muig[102,2] 1
muig[203,2] 1
muig[303,2] 1
pig[101,2] 1
pig[102,2] 1
pig[203,2] 1
pig[303,2] 1
alphaig[101,2] 1
alphaig[102,2] 1
alphaig[203,2] 1
alphaig[303,2] 1
